NAME : mEgtspf.pid12497.gtsp.161061369.tour
COMMENT : Length = 161061369
COMMENT : Found by LKH [Keld Helsgaun] Tue Apr 22 00:16:34 2025
TYPE : TOUR
DIMENSION : 90
TOUR_SECTION
1
2
85
86
83
84
73
74
71
72
46
43
44
45
39
40
41
42
8
81
82
79
80
12
13
14
11
7
3
87
88
89
90
22
19
20
21
4
76
77
78
75
31
32
33
34
16
17
18
15
29
30
27
28
64
65
66
63
60
61
62
59
58
55
56
57
49
50
47
48
38
35
36
37
23
24
25
26
67
68
69
70
6
10
5
9
54
51
52
53
-1
EOF
